31 28 12751
28 38 17025
38 29 745
29 36 16895
36 7 11794
7 13 23211
13 18 28045
18 21 18931
21 1 6578
1 6 25297
6 9 47658
9 15 71452
15 17 45489
17 14 42391
14 3 30026
3 16 71701
16 8 58436
8 11 17581
11 35 5412
35 10 6355
10 2 10593
2 27 15288
27 40 17541
40 19 13572
19 4 26533
4 22 23621
22 24 45980
24 5 63665
5 32 3290
32 20 24202
20 26 24941
26 33 15458
33 12 3967
12 34 39715
34 23 31609
23 25 11530
25 39 4093
39 37 6534
37 30 941
30 31 10287
